\* Problem: Unknown *\

Maximize
 obj: + xp_0_0 + xp_0_1 + xp_0_2 + xp_0_3 + xp_0_4 + xp_0_5 + xp_0_6
 + xp_0_7 + xp_1_0 + xp_1_1 + xp_2_0 + xp_2_1 + xp_2_2 + xp_2_3 + xp_2_4
 + xp_3_0 + xp_3_1 + xp_3_2 + xp_3_3 + xp_4_0 + xp_5_0 + xp_5_1 + xp_6_0
 + xp_6_1 + xp_7_0 + xp_7_1 + xp_8_0 + xp_9_0 + xp_10_0 + xp_11_0
 + xp_11_1 + xp_11_2 + xp_11_3 + xp_11_4 + xp_12_0 + xp_13_0 + xp_13_1
 + xp_14_0 + xp_14_1 + xp_15_0 + xp_16_0 + xp_17_0 + xp_17_1 + xp_17_2
 + xp_18_0 + xp_18_1 + xp_18_2 + xp_18_3 + xp_19_0 + xp_19_1 + xp_19_2
 + xp_19_3 + xp_20_0 + xp_20_1 + xp_20_2 + xp_20_3 + xp_20_4 + xp_21_0
 + xp_21_1 + xp_21_2 + xp_21_3 + xp_21_4 + xp_21_5 + xp_22_0 + xp_22_1
 + xp_22_2 + xp_22_3 + xp_22_4 + xp_22_5 + xp_23_0 + xp_23_1 + xp_23_2
 + xp_23_3 + xp_23_4

Subject To
 r_1: 0 xp_0_0 <= 29.2225609756098
 r_2: + xp_22_4 + xp_5_1 + xp_2_2 <= 29.2225609756098
 r_3: + xp_21_4 + xp_18_1 <= 30
 r_4: + xp_18_3 + xp_15_0 + xp_3_3 <= 30
 r_5: + xp_18_0 <= 28.4612068965517
 r_6: + xp_18_2 + xp_0_4 <= 30
 r_7: + xp_20_4 + xp_20_3 <= 29.2225609756098
 r_8: + xp_23_2 + xp_22_5 + xp_11_3 + xp_3_2 + xp_2_1
 <= 29.2225609756098
 r_9: + xp_23_4 + xp_11_1 + xp_6_1 + xp_3_1 <= 30
 r_10: + xp_11_4 + xp_3_0 <= 30
 r_11: + xp_18_2 + xp_11_2 + xp_0_5 + xp_0_4 <= 28.4612068965517
 r_12: + xp_11_0 + xp_3_3 <= 30
 r_13: 0 xp_0_0 <= 30
 r_14: + xp_21_5 + xp_19_1 + xp_14_0 + xp_0_7 + xp_0_1
 <= 29.2225609756098
 r_15: + xp_21_0 + xp_19_2 <= 29.2225609756098
 r_16: + xp_22_2 + xp_21_4 + xp_21_1 + xp_0_6 + xp_0_2
 <= 29.2225609756098
 r_17: + xp_0_0 <= 28.4612068965517
 r_18: + xp_4_0 + xp_0_4 <= 29.2225609756098
 r_19: + xp_19_0 <= 29.2225609756098
 r_20: + xp_21_3 + xp_21_2 + xp_19_3 + xp_14_1 + xp_0_5 + xp_0_3
 <= 29.2225609756098
 r_21: + xp_20_1 <= 29.2225609756098
 r_22: + xp_21_5 + xp_21_3 + xp_7_1 <= 29.2225609756098
 r_23: + xp_22_5 + xp_22_4 + xp_22_3 <= 29.2225609756098
 r_24: + xp_23_3 + xp_23_2 + xp_3_2 + xp_0_7 <= 29.2225609756098
 r_25: 0 xp_0_0 <= 29.2225609756098
 r_26: + xp_0_3 + xp_0_1 <= 28.4612068965517
 r_27: + xp_11_3 <= 29.2225609756098
 r_28: + xp_20_3 + xp_19_1 <= 29.2225609756098
 r_29: + xp_20_2 <= 29.2225609756098
 r_30: + xp_2_0 <= 29.2225609756098
 r_31: + xp_23_4 + xp_18_1 + xp_6_1 + xp_3_1 + xp_2_4 <= 30
 r_32: + xp_2_3 <= 30
 r_33: + xp_11_1 + xp_2_2 <= 30
 r_34: + xp_19_2 + xp_2_1 <= 30
 r_35: 0 xp_0_0 <= 29.2225609756098
 r_36: + xp_9_0 <= 29.2225609756098
 r_37: + xp_21_1 + xp_13_1 + xp_0_6 <= 30
 r_38: + xp_1_1 <= 30
 r_39: + xp_21_4 + xp_17_1 <= 30
 r_40: + xp_0_2 <= 28.4612068965517
 r_41: + xp_12_0 + xp_2_4 <= 29.2225609756098
 r_42: + xp_21_1 <= 30
 r_43: + xp_16_0 <= 30
 r_44: + xp_23_4 + xp_23_3 + xp_23_2 + xp_23_1 <= 30
 r_45: + xp_3_2 + xp_3_1 <= 30
 r_46: + xp_18_1 + xp_0_7 + xp_0_6 <= 28.4612068965517
 r_47: + xp_22_1 + xp_13_1 <= 30
 r_48: + xp_13_0 <= 30
 r_49: + xp_17_2 <= 30
 r_50: 0 xp_0_0 <= 28.4612068965517
 r_51: + xp_1_1 <= 30
 r_52: + xp_8_0 <= 30
 r_53: + xp_1_0 <= 30
 r_54: + xp_18_3 <= 28.4612068965517
 r_55: + xp_21_4 + xp_11_4 <= 30
 r_56: 0 xp_0_0 <= 30
 r_57: + xp_22_2 <= 28.4612068965517
 r_58: + xp_23_3 + xp_22_3 + xp_5_0 <= 28.4612068965517
 r_59: + xp_22_0 + xp_17_1 <= 28.4612068965517
 r_60: + xp_23_1 + xp_6_0 <= 28.4612068965517
 r_61: + xp_23_0 + xp_22_1 + xp_17_2 <= 28.4612068965517
 r_62: + xp_17_0 <= 28.4612068965517
 r_63: + xp_22_4 + xp_11_2 + xp_5_1 <= 28.4612068965517
 r_64: + xp_23_4 + xp_23_2 + xp_22_5 + xp_6_1 <= 28.4612068965517
 r_65: + xp_21_3 + xp_20_3 + xp_20_1 + xp_14_1 + xp_7_1 + xp_2_3
 + xp_0_3 <= 29.2225609756098
 r_66: + xp_21_2 + xp_20_2 + xp_7_0 <= 30
 r_67: + xp_20_4 + xp_19_3 + xp_10_0 + xp_0_5 <= 30
 r_68: + xp_20_0 <= 29.2225609756098

Bounds
 0 <= xp_0_0 <= 27.2844560453909
 0 <= xp_0_1 <= 8.98946430218704
 0 <= xp_0_2 <= 11.6933383051675
 0 <= xp_0_3 <= 6.28559029920654
 0 <= xp_0_4 <= 2.38781086415069
 0 <= xp_0_5 <= 1.19390543207535
 0 <= xp_0_6 <= 1.19390543207535
 0 <= xp_0_7 <= 3.89777943505585
 0 <= xp_1_0 <= 20.1326544267731
 0 <= xp_1_1 <= 15.0994908200798
 0 <= xp_2_0 <= 22.684359120609
 0 <= xp_2_1 <= 3.89777943505585
 0 <= xp_2_2 <= 6.02808739860901
 0 <= xp_2_3 <= 1.06515398177658
 0 <= xp_2_4 <= 1.06515398177658
 0 <= xp_3_0 <= 24.8146826752799
 0 <= xp_3_1 <= 2.1420090974172
 0 <= xp_3_2 <= 4.61178246752825
 0 <= xp_3_3 <= 0.714003032472401
 0 <= xp_4_0 <= 26.2192708813789
 0 <= xp_5_0 <= 14.9824405036451
 0 <= xp_5_1 <= 11.2368303777338
 0 <= xp_6_0 <= 20.2262946799208
 0 <= xp_6_1 <= 3.37104911332014
 0 <= xp_7_0 <= 19.3835324015908
 0 <= xp_7_1 <= 3.23058873359847
 0 <= xp_8_0 <= 20.3199349330686
 0 <= xp_9_0 <= 18.8451009459911
 0 <= xp_10_0 <= 18.8451009459911
 0 <= xp_11_0 <= 27.2844560453909
 0 <= xp_11_1 <= 13.8704508041769
 0 <= xp_11_2 <= 7.7955588701117
 0 <= xp_11_3 <= 9.97267136912101
 0 <= xp_11_4 <= 0.725704166336438
 0 <= xp_12_0 <= 17.6980078449307
 0 <= xp_13_0 <= 14.7483398707756
 0 <= xp_13_1 <= 2.45805664512927
 0 <= xp_14_0 <= 11.7050316434727
 0 <= xp_14_1 <= 4.68201265738909
 0 <= xp_15_0 <= 16.2231738578532
 0 <= xp_16_0 <= 15.5676920858187
 0 <= xp_17_0 <= 27.3195516514242
 0 <= xp_17_1 <= 15.6262133462566
 0 <= xp_17_2 <= 2.61021815871498
 0 <= xp_18_0 <= 24.1474919738225
 0 <= xp_18_1 <= 6.98789219781491
 0 <= xp_18_2 <= 10.1248562693833
 0 <= xp_18_3 <= 2.32929739927164
 0 <= xp_19_0 <= 27.9048110291567
 0 <= xp_19_1 <= 2.2590672094108
 0 <= xp_19_2 <= 10.6749810632882
 0 <= xp_19_3 <= 2.2590672094108
 0 <= xp_20_0 <= 27.6707103962872
 0 <= xp_20_1 <= 6.03979632803192
 0 <= xp_20_2 <= 4.28403378595214
 0 <= xp_20_3 <= 2.14201689297607
 0 <= xp_20_4 <= 2.14201689297607
 0 <= xp_21_0 <= 17.3468568956266
 0 <= xp_21_1 <= 11.564571263751
 0 <= xp_21_2 <= 3.89777943505585
 0 <= xp_21_3 <= 1.88450619681967
 0 <= xp_21_4 <= 3.89777943505585
 0 <= xp_21_5 <= 1.88450619681967
 0 <= xp_22_0 <= 11.0963699980121
 0 <= xp_22_1 <= 7.19859056295628
 0 <= xp_22_2 <= 1.65040556395022
 0 <= xp_22_3 <= 9.44596443406192
 0 <= xp_22_4 <= 5.54818499900607
 0 <= xp_22_5 <= 3.89777943505585
 0 <= xp_23_0 <= 18.2949605609684
 0 <= xp_23_1 <= 5.54818499900607
 0 <= xp_23_2 <= 5.54818499900607
 0 <= xp_23_3 <= 3.89777943505585
 0 <= xp_23_4 <= 5.54818499900607

End
